53
3 105 104 48 
3 49 23 116 
2 109 32 
3 18 57 29 
3 88 107 14 
3 33 97 54 
3 36 90 84 
2 42 46 
3 30 17 60 
3 94 77 92 
3 61 32 80 
3 35 45 86 
2 69 31 
3 65 58 71 
3 67 89 15 
2 76 87 
3 101 93 85 
3 3 50 96 
2 16 91 
2 10 79 
3 4 44 75 
3 25 2 47 
2 82 40 
1 59 
2 38 70 
1 34 
1 9 
2 83 21 
3 12 33 54 
2 28 108 
1 37 
2 112 106 
2 115 22 
3 95 119 20 
3 110 120 12 
3 5 118 11 
2 51 73 
3 111 74 55 
2 78 1 
3 18 57 56 
3 13 26 6 
2 64 63 
1 52 
1 19 
2 53 24 
1 81 
3 99 72 66 
2 113 103 
3 7 102 62 
1 68 
1 8 
1 41 
1 43 
